units        metal
boundary     p p p                      
atom_style   atomic
variable    T equal 300
variable    r equal 20




#--------------------------Read data----------------------------------
read_data 5k_ps1.lmp
timestep 0.001



# ------------------------ FORCE FIELDS ------------------------------

pair_style eam/alloy
pair_coeff * * FeNiCr.t Ni Cr Fe

compute csym all centro/atom 12
compute ke all ke/atom
compute pe all pe/atom
compute 2 all stress/atom NULL virial
compute mytemp all temp
compute mypress all pressure thermo_temp
compute 11 all reduce sum c_2[1]
compute 12 all reduce sum c_2[2]
compute 13 all reduce sum c_2[3]
compute 14 all reduce sum c_2[4]
compute 15 all reduce sum c_2[5]
compute 16 all reduce sum c_2[6]
variable        temp atom c_ke/(0.00008617333262*1.5)


neighbor 2.0 bin
neigh_modify every 1 delay 0 check yes




thermo_style custom step temp etotal press vol pxx pyy pzz lx ly lz
thermo 100



dump            min all xyz 10000 output_min.xyz
dump_modify     min element Ni Cr Fe

fix                    br all box/relax iso 0.0 vmax 0.001
min_style              cg
minimize               1.00e-30 1.00e-30 10000 10000
unfix                  br


undump min

velocity all create ${T} 1234567 mom yes rot yes

reset_timestep  0

dump 10 all custom 10000 dump.equilibrate.atom id type x y z
fix 1 all nve
run 50000
unfix 1

variable tmpT equal "temp"
variable T0 equal ${tmpT}

fix 1 all npt temp ${tmpT} ${T} .1 iso 1 1 1
run 50000
unfix 1


undump 10
#--------------------Storing Initial length---------------------
variable tmp equal "lz"
variable L0 equal ${tmp}
print "Initial Length, L0: ${L0}"
#variable strain equal "v_srate/1e12"

#------------Deform------------------------------
reset_timestep 0
fix 1 all deform 1 z erate 0.001 units box
fix 2 all nvt temp $T $T 1

variable strain equal "(lz - v_L0)/v_L0"
variable stress equal "(-pzz)/10000"
variable p1 equal "v_strain"
variable p2 equal "-pxx/10000"
variable p3 equal "-pyy/10000"
variable p4 equal "v_stress"
variable p5 equal "lx"
variable p6 equal "ly"
variable p7 equal "lz"
variable p8 equal "temp"
variable p9 equal "pe"
variable p10 equal "ke"
variable p11 equal "-pxy/10000"
variable p13 equal "-pyz/10000"
variable p12 equal "-pxz/10000"
variable energy equal "v_p9 + v_p10"
variable fm equal "(v_p2+v_p3+v_p4)/3" ##### Hydrostatic stress

variable fv equal "sqrt((v_p2-v_p3)^2+(v_p3-v_p4)^2+(v_p4-v_p2)^2+6*(v_p11^2+v_p12^2+v_p13^2)/2)" ######Von Mises Stress

variable t equal "v_fm/v_fv"
variable fd equal (((v_p2-v_fm)*(v_p3-v_fm)*(v_p4-v_fm))-v_p11^2*(v_p4-v_fm)-v_p12^2*(v_p3-v_fm)-v_p13^2*(v_p2-v_fm)+2*v_p11*v_p12*v_p13)####Deviatoric Von Mises stress

dump 2 all custom 1000 dump.defo id type x y z c_csym c_2[1] c_2[2] c_2[3] c_2[4] c_2[5] c_2[6] c_ke c_pe v_temp fx fy fz

fix def_print all print 1000 "${p1} ${p4} ${energy} ${p3} ${p2} ${p5} ${p6} ${p7} ${p8} ${p9} ${p10} ${p11} ${p12} ${p13} ${fm} ${fv} ${t} ${fd}" file inconel.result.txt screen no

fix def_print2 all print 1000 "${p1},${p4}" file result_5k_1.csv screen no

run 300000

